import Controller.dzn;
component System {
	provides IController iController;
	requires ILEDControl iLEDControl;
	requires IAccelerationSensor iAccelerationSensor;
	requires IResolver iResolver;

	system {
		Controller controller;
		AccelerationControl accelerationControl;

		iController <=> controller.iController;
		iLEDControl <=> controller.iLEDControl;
		accelerationControl.iAccelerationControl <=> controller.iAccelerationControl;
		iAccelerationSensor <=> accelerationControl.iAccelerationSensor;
	}
}
